200
1000
378
374
373
372
371
371
371
370
362
362
361
358
358
357
356
354
353
351
351
350
348
346
346
344
341
340
339
338
336
336
334
332
330
330
328
324
324
321
320
319
318
317
317
316
316
309
309
309
308
308
307
307
306
304
303
302
301
300
300
299
290
290
289
287
282
279
272
270
269
267
266
263
262
261
258
257
255
254
253
253
250
249
246
242
242
242
242
238
238
238
237
235
232
230
230
228
225
221
221
219
217
213
210
210
209
206
205
203
203
200
199
198
198
197
195
190
190
187
180
178
177
177
176
167
166
166
165
159
159
157
155
154
154
153
151
151
151
150
147
141
139
139
138
136
129
128
128
127
126
125
123
115
110
105
104
101
100
99
96
96
93
92
92
91
89
89
88
87
86
79
77
76
73
70
68
65
57
54
54
53
49
48
46
46
42
38
38
37
37
37
34
33
30
30
30
27
25
22
22
22
